myproject/instances/20nodes/rnd9_20.tsp
NAME : rnd9_20.tsp
TYPE : TSP
DIMENSION : 20
EDGE_WEIGHT_TYPE : EUC_2D
NODE_COORD_SECTION
1 403 634
2 82 215
3 221 124
4 319 896
5 806 916
6 672 118
7 179 945
8 851 677
9 787 151
10 543 362
11 395 303
12 10 371
13 322 649
14 571 569
15 977 219
16 414 657
17 397 605
18 622 941
19 49 787
20 382 465
