myproject/instances/20nodes/rnd9_20.opt.tour
NAME : rnd9_20.tsp.tsp.optbc.tour
TYPE : TOUR
DIMENSION : 20
TOUR_SECTION
1
16
4
7
19
12
2
3
11
6
9
15
8
5
18
14
10
20
13
17
-1